NAME: random-95-12180
TYPE: TSP
COMMENT: size=95 seed=12180
DIMENSION: 192
EDGE_WEIGHT_TYPE: EUC_2D
NODE_COORD_SECTION
+0 260 326
-0 260 326
+1 17 58
-1 189 644
+2 509 172
-2 63 778
+3 273 173
-3 463 743
+4 282 49
-4 710 502
+5 192 912
-5 689 456
+6 818 141
-6 180 332
+7 178 920
-7 171 579
+8 348 94
-8 445 881
+9 85 9
-9 930 277
+10 884 311
-10 846 255
+11 355 505
-11 669 955
+12 233 455
-12 435 294
+13 728 764
-13 615 84
+14 845 629
-14 522 701
+15 314 65
-15 484 725
+16 181 188
-16 933 505
+17 719 934
-17 234 914
+18 322 230
-18 256 88
+19 73 810
-19 575 913
+20 646 598
-20 349 85
+21 35 551
-21 251 475
+22 249 806
-22 360 830
+23 975 363
-23 607 192
+24 587 557
-24 680 747
+25 212 207
-25 574 756
+26 476 26
-26 729 366
+27 597 783
-27 128 822
+28 262 197
-28 630 8
+29 145 443
-29 105 724
+30 924 692
-30 628 678
+31 531 925
-31 659 866
+32 739 211
-32 19 226
+33 103 554
-33 807 646
+34 458 148
-34 83 727
+35 211 88
-35 709 72
+36 408 434
-36 831 860
+37 10 430
-37 763 858
+38 955 269
-38 184 532
+39 699 796
-39 463 373
+40 494 186
-40 913 275
+41 625 566
-41 82 257
+42 500 61
-42 421 731
+43 406 15
-43 265 697
+44 946 305
-44 54 845
+45 21 737
-45 716 511
+46 221 513
-46 61 10
+47 378 805
-47 787 426
+48 436 521
-48 218 510
+49 771 198
-49 123 892
+50 943 956
-50 359 552
+51 464 319
-51 765 485
+52 847 286
-52 12 88
+53 227 264
-53 371 728
+54 896 425
-54 982 396
+55 523 322
-55 79 962
+56 277 135
-56 916 951
+57 870 72
-57 698 320
+58 545 455
-58 105 670
+59 885 196
-59 25 24
+60 208 215
-60 882 952
+61 131 688
-61 337 550
+62 507 551
-62 391 370
+63 347 334
-63 291 531
+64 676 597
-64 80 531
+65 222 329
-65 923 635
+66 885 944
-66 932 953
+67 71 555
-67 801 473
+68 44 567
-68 310 487
+69 726 811
-69 185 908
+70 466 521
-70 328 635
+71 836 932
-71 326 397
+72 0 182
-72 37 333
+73 189 536
-73 745 921
+74 356 650
-74 281 720
+75 980 330
-75 762 275
+76 511 878
-76 292 646
+77 499 430
-77 564 964
+78 598 513
-78 335 266
+79 186 37
-79 623 901
+80 885 706
-80 940 724
+81 344 421
-81 692 999
+82 10 31
-82 676 817
+83 318 746
-83 428 219
+84 273 209
-84 259 936
+85 646 708
-85 327 802
+86 894 811
-86 683 883
+87 648 884
-87 534 935
+88 322 528
-88 15 583
+89 93 311
-89 314 251
+90 640 606
-90 727 83
+91 223 247
-91 651 115
+92 865 27
-92 49 43
+93 696 904
-93 261 950
+94 293 654
-94 149 475
+95 968 509
-95 72 846
PRECEDENCE_SECTION
+0 -0
+1 -1
+2 -2
+3 -3
+4 -4
+5 -5
+6 -6
+7 -7
+8 -8
+9 -9
+10 -10
+11 -11
+12 -12
+13 -13
+14 -14
+15 -15
+16 -16
+17 -17
+18 -18
+19 -19
+20 -20
+21 -21
+22 -22
+23 -23
+24 -24
+25 -25
+26 -26
+27 -27
+28 -28
+29 -29
+30 -30
+31 -31
+32 -32
+33 -33
+34 -34
+35 -35
+36 -36
+37 -37
+38 -38
+39 -39
+40 -40
+41 -41
+42 -42
+43 -43
+44 -44
+45 -45
+46 -46
+47 -47
+48 -48
+49 -49
+50 -50
+51 -51
+52 -52
+53 -53
+54 -54
+55 -55
+56 -56
+57 -57
+58 -58
+59 -59
+60 -60
+61 -61
+62 -62
+63 -63
+64 -64
+65 -65
+66 -66
+67 -67
+68 -68
+69 -69
+70 -70
+71 -71
+72 -72
+73 -73
+74 -74
+75 -75
+76 -76
+77 -77
+78 -78
+79 -79
+80 -80
+81 -81
+82 -82
+83 -83
+84 -84
+85 -85
+86 -86
+87 -87
+88 -88
+89 -89
+90 -90
+91 -91
+92 -92
+93 -93
+94 -94
+95 -95
EOF
